(set-option :produce-models true)
(set-logic QF_LRA)
(set-info :notes | Strip-packing problem.|)
(declare-fun x0 () Real)
(declare-fun y0 () Real)
(declare-fun x1 () Real)
(declare-fun y1 () Real)
(declare-fun x2 () Real)
(declare-fun y2 () Real)
(declare-fun x3 () Real)
(declare-fun y3 () Real)
(declare-fun x4 () Real)
(declare-fun y4 () Real)
(declare-fun x5 () Real)
(declare-fun y5 () Real)
(declare-fun x6 () Real)
(declare-fun y6 () Real)
(declare-fun x7 () Real)
(declare-fun y7 () Real)
(declare-fun x8 () Real)
(declare-fun y8 () Real)
(declare-fun z () Real)
(declare-fun c () Real)
(assert (and (= c z) (and (>= x0 0) 
(and (>= y0 0) 
(and (>= x1 0) 
(and (>= y1 0) 
(and (>= x2 0) 
(and (>= y2 0) 
(and (>= x3 0) 
(and (>= y3 0) 
(and (>= x4 0) 
(and (>= y4 0) 
(and (>= x5 0) 
(and (>= y5 0) 
(and (>= x6 0) 
(and (>= y6 0) 
(and (>= x7 0) 
(and (>= y7 0) 
(and (>= x8 0) 
(and (>= y8 0) 
(and (>= z 0) 
(and (>= c 0) 
(and (<= (+ x0 0.3335895289) z) 
(and (<= 0.8573996471 y0) 
(and (<= y0 1.0) 
(and (<= x0 (- 4.2863637764 0.3335895289)) 
(and (>= x0 0) 
(and (<= (+ x1 0.9891395569) z) 
(and (<= 0.6252455079 y1) 
(and (<= y1 1.0) 
(and (<= x1 (- 4.2863637764 0.9891395569)) 
(and (>= x1 0) 
(and (<= (+ x2 0.8546972053) z) 
(and (<= 0.5599452081 y2) 
(and (<= y2 1.0) 
(and (<= x2 (- 4.2863637764 0.8546972053)) 
(and (>= x2 0) 
(and (<= (+ x3 0.309407347) z) 
(and (<= 0.3985429613 y3) 
(and (<= y3 1.0) 
(and (<= x3 (- 4.2863637764 0.309407347)) 
(and (>= x3 0) 
(and (<= (+ x4 0.5254293213) z) 
(and (<= 0.3425274973 y4) 
(and (<= y4 1.0) 
(and (<= x4 (- 4.2863637764 0.5254293213)) 
(and (>= x4 0) 
(and (<= (+ x5 0.4418099522) z) 
(and (<= 0.3386789141 y5) 
(and (<= y5 1.0) 
(and (<= x5 (- 4.2863637764 0.4418099522)) 
(and (>= x5 0) 
(and (<= (+ x6 0.7259518605) z) 
(and (<= 0.1896519478 y6) 
(and (<= y6 1.0) 
(and (<= x6 (- 4.2863637764 0.7259518605)) 
(and (>= x6 0) 
(and (<= (+ x7 0.9411756726) z) 
(and (<= 0.1811798722 y7) 
(and (<= y7 1.0) 
(and (<= x7 (- 4.2863637764 0.9411756726)) 
(and (>= x7 0) 
(and (<= (+ x8 0.8377326776) z) 
(and (<= 0.0940270185 y8) 
(and (<= y8 1.0) 
(and (<= x8 (- 4.2863637764 0.8377326776)) 
(and (>= x8 0) 
(and (<= c 4.2863637764) 
(and (or (<= (+ x0 0.3335895289) x1) (or (<= (+ x1 0.9891395569) x0) (or (>= (- y0 0.8573996471) y1) (or (>= (- y1 0.6252455079) y0))))) 
(and (or (<= (+ x0 0.3335895289) x2) (or (<= (+ x2 0.8546972053) x0) (or (>= (- y0 0.8573996471) y2) (or (>= (- y2 0.5599452081) y0))))) 
(and (or (<= (+ x0 0.3335895289) x3) (or (<= (+ x3 0.309407347) x0) (or (>= (- y0 0.8573996471) y3) (or (>= (- y3 0.3985429613) y0))))) 
(and (or (<= (+ x0 0.3335895289) x4) (or (<= (+ x4 0.5254293213) x0) (or (>= (- y0 0.8573996471) y4) (or (>= (- y4 0.3425274973) y0))))) 
(and (or (<= (+ x0 0.3335895289) x5) (or (<= (+ x5 0.4418099522) x0) (or (>= (- y0 0.8573996471) y5) (or (>= (- y5 0.3386789141) y0))))) 
(and (or (<= (+ x0 0.3335895289) x6) (or (<= (+ x6 0.7259518605) x0) (or (>= (- y0 0.8573996471) y6) (or (>= (- y6 0.1896519478) y0))))) 
(and (or (<= (+ x0 0.3335895289) x7) (or (<= (+ x7 0.9411756726) x0) (or (>= (- y0 0.8573996471) y7) (or (>= (- y7 0.1811798722) y0))))) 
(and (or (<= (+ x0 0.3335895289) x8) (or (<= (+ x8 0.8377326776) x0) (or (>= (- y0 0.8573996471) y8) (or (>= (- y8 0.0940270185) y0))))) 
(and (or (<= (+ x1 0.9891395569) x2) (or (<= (+ x2 0.8546972053) x1) (or (>= (- y1 0.6252455079) y2) (or (>= (- y2 0.5599452081) y1))))) 
(and (or (<= (+ x1 0.9891395569) x3) (or (<= (+ x3 0.309407347) x1) (or (>= (- y1 0.6252455079) y3) (or (>= (- y3 0.3985429613) y1))))) 
(and (or (<= (+ x1 0.9891395569) x4) (or (<= (+ x4 0.5254293213) x1) (or (>= (- y1 0.6252455079) y4) (or (>= (- y4 0.3425274973) y1))))) 
(and (or (<= (+ x1 0.9891395569) x5) (or (<= (+ x5 0.4418099522) x1) (or (>= (- y1 0.6252455079) y5) (or (>= (- y5 0.3386789141) y1))))) 
(and (or (<= (+ x1 0.9891395569) x6) (or (<= (+ x6 0.7259518605) x1) (or (>= (- y1 0.6252455079) y6) (or (>= (- y6 0.1896519478) y1))))) 
(and (or (<= (+ x1 0.9891395569) x7) (or (<= (+ x7 0.9411756726) x1) (or (>= (- y1 0.6252455079) y7) (or (>= (- y7 0.1811798722) y1))))) 
(and (or (<= (+ x1 0.9891395569) x8) (or (<= (+ x8 0.8377326776) x1) (or (>= (- y1 0.6252455079) y8) (or (>= (- y8 0.0940270185) y1))))) 
(and (or (<= (+ x2 0.8546972053) x3) (or (<= (+ x3 0.309407347) x2) (or (>= (- y2 0.5599452081) y3) (or (>= (- y3 0.3985429613) y2))))) 
(and (or (<= (+ x2 0.8546972053) x4) (or (<= (+ x4 0.5254293213) x2) (or (>= (- y2 0.5599452081) y4) (or (>= (- y4 0.3425274973) y2))))) 
(and (or (<= (+ x2 0.8546972053) x5) (or (<= (+ x5 0.4418099522) x2) (or (>= (- y2 0.5599452081) y5) (or (>= (- y5 0.3386789141) y2))))) 
(and (or (<= (+ x2 0.8546972053) x6) (or (<= (+ x6 0.7259518605) x2) (or (>= (- y2 0.5599452081) y6) (or (>= (- y6 0.1896519478) y2))))) 
(and (or (<= (+ x2 0.8546972053) x7) (or (<= (+ x7 0.9411756726) x2) (or (>= (- y2 0.5599452081) y7) (or (>= (- y7 0.1811798722) y2))))) 
(and (or (<= (+ x2 0.8546972053) x8) (or (<= (+ x8 0.8377326776) x2) (or (>= (- y2 0.5599452081) y8) (or (>= (- y8 0.0940270185) y2))))) 
(and (or (<= (+ x3 0.309407347) x4) (or (<= (+ x4 0.5254293213) x3) (or (>= (- y3 0.3985429613) y4) (or (>= (- y4 0.3425274973) y3))))) 
(and (or (<= (+ x3 0.309407347) x5) (or (<= (+ x5 0.4418099522) x3) (or (>= (- y3 0.3985429613) y5) (or (>= (- y5 0.3386789141) y3))))) 
(and (or (<= (+ x3 0.309407347) x6) (or (<= (+ x6 0.7259518605) x3) (or (>= (- y3 0.3985429613) y6) (or (>= (- y6 0.1896519478) y3))))) 
(and (or (<= (+ x3 0.309407347) x7) (or (<= (+ x7 0.9411756726) x3) (or (>= (- y3 0.3985429613) y7) (or (>= (- y7 0.1811798722) y3))))) 
(and (or (<= (+ x3 0.309407347) x8) (or (<= (+ x8 0.8377326776) x3) (or (>= (- y3 0.3985429613) y8) (or (>= (- y8 0.0940270185) y3))))) 
(and (or (<= (+ x4 0.5254293213) x5) (or (<= (+ x5 0.4418099522) x4) (or (>= (- y4 0.3425274973) y5) (or (>= (- y5 0.3386789141) y4))))) 
(and (or (<= (+ x4 0.5254293213) x6) (or (<= (+ x6 0.7259518605) x4) (or (>= (- y4 0.3425274973) y6) (or (>= (- y6 0.1896519478) y4))))) 
(and (or (<= (+ x4 0.5254293213) x7) (or (<= (+ x7 0.9411756726) x4) (or (>= (- y4 0.3425274973) y7) (or (>= (- y7 0.1811798722) y4))))) 
(and (or (<= (+ x4 0.5254293213) x8) (or (<= (+ x8 0.8377326776) x4) (or (>= (- y4 0.3425274973) y8) (or (>= (- y8 0.0940270185) y4))))) 
(and (or (<= (+ x5 0.4418099522) x6) (or (<= (+ x6 0.7259518605) x5) (or (>= (- y5 0.3386789141) y6) (or (>= (- y6 0.1896519478) y5))))) 
(and (or (<= (+ x5 0.4418099522) x7) (or (<= (+ x7 0.9411756726) x5) (or (>= (- y5 0.3386789141) y7) (or (>= (- y7 0.1811798722) y5))))) 
(and (or (<= (+ x5 0.4418099522) x8) (or (<= (+ x8 0.8377326776) x5) (or (>= (- y5 0.3386789141) y8) (or (>= (- y8 0.0940270185) y5))))) 
(and (or (<= (+ x6 0.7259518605) x7) (or (<= (+ x7 0.9411756726) x6) (or (>= (- y6 0.1896519478) y7) (or (>= (- y7 0.1811798722) y6))))) 
(and (or (<= (+ x6 0.7259518605) x8) (or (<= (+ x8 0.8377326776) x6) (or (>= (- y6 0.1896519478) y8) (or (>= (- y8 0.0940270185) y6))))) 
(and (or (<= (+ x7 0.9411756726) x8) (or (<= (+ x8 0.8377326776) x7) (or (>= (- y7 0.1811798722) y8) (or (>= (- y8 0.0940270185) y7))))) ))))))))))))))))))))))))))))))))))))))))))))))))))))))))))))))))))))))))))))))))))))))))))))))))))))))))
(minimize c)
(check-sat)
(get-objectives)
(exit)
